1 46.3 53.4
2 53.5 58.8
3 46.4 57.3
4 45 52.1
5 31.6 41.4
6 37.8 48.5
7 48.7 39.8
8 49.2 55.8
9 48 47.7
10 39.9 58.2
11 44.6 45.5
12 38.2 60
13 36.8 50
14 33.3 44.6
15 46.1 40.3
16 44.4 48.1
17 53.6 37.2
18 39.5 57.5
19 37.9 43.2
20 39.8 43.4
